networks/zoo_176_4085/zoo_176_4085-lower.txt
Number of groups: 83
Flow 9: {50 21 0} {21 23 1} {23 116 2} 
Flow 19: {1 2 0} {2 50 1} {50 52 2} {52 145 3} 
Flow 93: {70 71 0} {71 72 1} {72 165 2} 
Flow 95: {18 75 0} {75 74 1} {74 167 2} 
Flow 200: {2 95 0} 
Flow 206: {13 10 0} {10 103 1} 
Flow 211: {52 42 0} {42 15 1} {15 108 2} 
Flow 227: {14 31 0} {31 124 1} 
Flow 263: {5 70 0} {70 163 1} 
Flow 280: {6 5 0} {5 13 1} {13 11 2} {11 104 3} 
Flow 318: {6 3 0} {3 64 1} {64 65 2} {65 158 3} 
Flow 352: {7 50 0} {50 49 1} {49 38 2} {38 43 3} {43 136 4} 
Flow 379: {8 12 0} {12 49 1} {49 39 2} {39 132 3} 
Flow 388: {9 50 0} {50 7 1} {7 100 2} 
Flow 438: {10 13 0} {13 5 1} {5 4 2} {4 3 3} {3 96 4} 
Flow 445: {10 11 0} {11 46 1} {46 41 2} {41 134 3} 
Flow 517: {22 79 0} {79 80 1} {80 173 2} 
Flow 780: {29 37 0} {37 54 1} {54 147 2} 
Flow 804: {81 82 0} {82 175 1} 
Flow 898: {19 23 0} {23 21 1} {21 50 2} {50 143 3} 
Flow 1015: {80 76 0} {76 24 1} {24 25 2} {25 118 3} 
Flow 1058: {74 78 0} {78 81 1} {81 67 2} {67 73 3} {73 166 4} 
Flow 1118: {23 19 0} {19 18 1} {18 111 2} 
Flow 1149: {11 10 0} 
Flow 1156: {76 80 0} {80 79 1} {79 22 2} {22 17 3} {17 110 4} 
Flow 1236: {17 16 0} {16 20 1} {20 21 2} {21 114 3} 
Flow 1244: {68 33 0} {33 126 1} 
Flow 1276: {25 69 2} {69 68 3} {68 161 4} 
Flow 1299: {26 24 0} {24 76 1} {76 77 2} {77 78 3} {78 171 4} 
Flow 1361: {28 51 0} {51 52 1} {52 49 2} {49 142 3} 
Flow 1424: {30 12 3} {12 105 4} 
Flow 1487: {31 14 0} {14 68 1} {68 69 2} {69 162 3} 
Flow 1507: {32 33 0} {33 68 1} {68 14 2} {14 24 3} {24 117 4} 
Flow 1612: {71 70 0} {70 5 1} {5 6 2} 
Flow 1625: {34 24 0} {24 57 1} {57 27 2} {27 120 3} 
Flow 1737: {36 53 0} {53 51 1} {51 144 2} 
Flow 1794: {37 29 0} {29 51 1} {51 15 2} {15 42 3} {42 135 4} 
Flow 1846: {40 41 0} {41 39 1} {39 45 2} {45 44 3} {44 137 4} 
Flow 1925: {42 52 0} {52 50 1} {50 2 2} {2 1 3} {1 94 4} 
Flow 1968: {15 51 0} {51 55 1} {55 148 2} 
Flow 2012: {43 38 0} {38 131 1} 
Flow 2022: {51 53 0} {53 146 1} 
Flow 2026: {38 49 0} {49 52 1} {52 51 2} {51 61 3} {61 154 4} 
Flow 2039: {72 66 0} {66 81 1} {81 174 2} 
Flow 2133: {41 46 0} {46 47 1} {47 140 2} 
Flow 2166: {46 49 0} {49 50 1} {50 9 2} {9 102 3} 
Flow 2177: {21 20 0} {20 16 1} {16 17 2} {17 22 3} {22 115 4} 
Flow 2188: {27 58 0} {58 35 1} {35 128 2} 
Flow 2249: {47 46 0} {46 139 1} 
Flow 2301: {12 30 0} {30 123 1} 
Flow 2306: {53 36 0} {36 129 1} 
Flow 2325: {57 150 0} 
Flow 2440: {49 46 0} {46 11 1} {11 13 2} {13 106 3} 
Flow 2568: {44 5 0} {5 98 1} 
Flow 2588: {55 51 0} {51 28 1} {28 121 2} 
Flow 2616: {55 48 0} {48 61 1} {61 63 2} {63 156 3} 
Flow 2658: {56 36 0} {36 37 1} {37 130 2} 
Flow 2710: {35 24 0} {24 26 1} {26 119 2} 
Flow 2732: {58 27 0} {27 60 1} {60 153 2} 
Flow 2809: {60 27 0} {27 57 1} {57 24 2} {24 14 3} {14 107 4} 
Flow 2882: {62 27 0} {27 59 1} {59 29 2} {29 122 3} 
Flow 2927: {63 61 0} {61 51 1} {51 29 2} {29 59 3} {59 152 4} 
Flow 2951: {39 49 0} {49 12 1} {12 8 2} {8 101 3} 
Flow 2981: {3 4 0} {4 5 1} {5 44 2} {44 45 3} {45 138 4} 
Flow 3000: {65 71 0} {71 73 1} {73 67 2} {67 160 3} 
Flow 3017: {64 3 0} {3 6 1} {6 99 2} 
Flow 3229: {69 25 0} {25 24 1} {24 34 2} {34 127 3} 
Flow 3323: {59 27 0} {27 62 1} {62 155 2} 
Flow 3336: {77 76 0} {76 169 1} 
Flow 3355: {20 113 0} 
Flow 3490: {45 39 0} {39 41 1} {41 40 2} {40 133 3} 
Flow 3518: {73 71 0} {71 164 1} 
Flow 3528: {67 81 0} {81 78 1} {78 83 2} {83 176 3} 
Flow 3580: {66 72 0} {72 71 1} {71 65 2} {65 64 3} {64 157 4} 
Flow 3607: {75 18 0} {18 16 1} {16 109 2} 
Flow 3799: {24 35 0} {35 58 1} {58 151 2} 
Flow 3884: {16 18 0} {18 19 1} {19 112 2} 
Flow 3971: {37 36 0} {36 56 1} {56 149 2} 
Flow 4025: {82 81 0} {81 66 1} {66 159 2} 
Flow 4029: {78 74 0} {74 75 1} {75 168 2} 
Flow 4034: {82 83 3} 
Flow 4082: {83 78 0} {78 77 1} {77 170 2} 
Flow 4085: {83 82 0} 
Time taken running everything: 26 seconds
