networks/zoo_176_4085/zoo_176_4085-lower.sol
<?xml version = "1.0" encoding="UTF-8" standalone="yes"?>
<CPLEXSolution version="1.2">
 <header
   problemName="networks/zoo_176_4085/zoo_176_4085-lower.lp"
   solutionName="incumbent"
   solutionIndex="-1"
   objectiveValue="83"
   solutionTypeValue="3"
   solutionTypeString="primal"
   solutionStatusValue="101"
   solutionStatusString="integer optimal solution"
   solutionMethodString="mip"
   primalFeasible="1"
   dualFeasible="1"
   MIPNodes="0"
   MIPIterations="18"
   writeLevel="3"/>
 <quality
   epInt="1.0000000000000001e-05"
   epRHS="9.9999999999999995e-07"
   maxIntInfeas="0"
   maxPrimalInfeas="0"
   maxX="1"
   maxSlack="1"/>
 <variables>
  <variable name="Y(19,52)" index="2967" value="1"/>
  <variable name="Y(34,1)" index="5346" value="1"/>
  <variable name="Y(206,13)" index="33222" value="1"/>
  <variable name="Y(221,25)" index="35664" value="1"/>
  <variable name="Y(277,5)" index="44716" value="1"/>
  <variable name="Y(318,65)" index="51418" value="1"/>
  <variable name="Y(352,43)" index="56904" value="1"/>
  <variable name="Y(383,78)" index="61961" value="1"/>
  <variable name="Y(388,7)" index="62700" value="1"/>
  <variable name="Y(438,3)" index="70796" value="1"/>
  <variable name="Y(447,49)" index="72300" value="1"/>
  <variable name="Y(604,33)" index="97718" value="1"/>
  <variable name="Y(714,18)" index="115523" value="1"/>
  <variable name="Y(866,9)" index="140138" value="1"/>
  <variable name="Y(870,15)" index="140792" value="1"/>
  <variable name="Y(871,16)" index="140955" value="1"/>
  <variable name="Y(1064,80)" index="172285" value="1"/>
  <variable name="Y(1074,17)" index="173842" value="1"/>
  <variable name="Y(1109,77)" index="179572" value="1"/>
  <variable name="Y(1161,22)" index="187941" value="1"/>
  <variable name="Y(1173,36)" index="189899" value="1"/>
  <variable name="Y(1193,57)" index="193160" value="1"/>
  <variable name="Y(1276,68)" index="206617" value="1"/>
  <variable name="Y(1294,24)" index="209489" value="1"/>
  <variable name="Y(1340,58)" index="216975" value="1"/>
  <variable name="Y(1362,50)" index="220531" value="1"/>
  <variable name="Y(1424,12)" index="230537" value="1"/>
  <variable name="Y(1439,38)" index="232993" value="1"/>
  <variable name="Y(1487,69)" index="240800" value="1"/>
  <variable name="Y(1513,35)" index="244978" value="1"/>
  <variable name="Y(1586,53)" index="256822" value="1"/>
  <variable name="Y(1644,60)" index="266225" value="1"/>
  <variable name="Y(1671,27)" index="270566" value="1"/>
  <variable name="Y(1740,54)" index="281771" value="1"/>
  <variable name="Y(1747,62)" index="282913" value="1"/>
  <variable name="Y(1844,39)" index="298604" value="1"/>
  <variable name="Y(1847,46)" index="299097" value="1"/>
  <variable name="Y(1930,8)" index="312505" value="1"/>
  <variable name="Y(1968,55)" index="318708" value="1"/>
  <variable name="Y(2018,47)" index="326800" value="1"/>
  <variable name="Y(2072,45)" index="335546" value="1"/>
  <variable name="Y(2082,61)" index="337182" value="1"/>
  <variable name="Y(2247,41)" index="363892" value="1"/>
  <variable name="Y(2281,10)" index="369369" value="1"/>
  <variable name="Y(2284,13)" index="369858" value="1"/>
  <variable name="Y(2302,31)" index="372792" value="1"/>
  <variable name="Y(2369,20)" index="383635" value="1"/>
  <variable name="Y(2379,30)" index="385265" value="1"/>
  <variable name="Y(2416,70)" index="391299" value="1"/>
  <variable name="Y(2566,2)" index="415531" value="1"/>
  <variable name="Y(2606,51)" index="422060" value="1"/>
  <variable name="Y(2616,63)" index="423692" value="1"/>
  <variable name="Y(2620,67)" index="424344" value="1"/>
  <variable name="Y(2654,28)" index="429813" value="1"/>
  <variable name="Y(2704,19)" index="437904" value="1"/>
  <variable name="Y(2710,26)" index="438883" value="1"/>
  <variable name="Y(2731,59)" index="442318" value="1"/>
  <variable name="Y(2776,40)" index="449589" value="1"/>
  <variable name="Y(2813,29)" index="455572" value="1"/>
  <variable name="Y(2878,14)" index="466087" value="1"/>
  <variable name="Y(2912,37)" index="471618" value="1"/>
  <variable name="Y(2935,72)" index="475379" value="1"/>
  <variable name="Y(2953,11)" index="478234" value="1"/>
  <variable name="Y(3017,6)" index="488597" value="1"/>
  <variable name="Y(3049,73)" index="493848" value="1"/>
  <variable name="Y(3104,5)" index="502690" value="1"/>
  <variable name="Y(3127,64)" index="506475" value="1"/>
  <variable name="Y(3229,34)" index="522969" value="1"/>
  <variable name="Y(3527,82)" index="571293" value="1"/>
  <variable name="Y(3573,56)" index="578719" value="1"/>
  <variable name="Y(3614,23)" index="585328" value="1"/>
  <variable name="Y(3680,21)" index="596018" value="1"/>
  <variable name="Y(3793,44)" index="614347" value="1"/>
  <variable name="Y(3804,66)" index="616151" value="1"/>
  <variable name="Y(3808,75)" index="616808" value="1"/>
  <variable name="Y(3813,83)" index="617626" value="1"/>
  <variable name="Y(3901,42)" index="631841" value="1"/>
  <variable name="Y(3925,76)" index="635763" value="1"/>
  <variable name="Y(4033,81)" index="653264" value="1"/>
  <variable name="Y(4034,82)" index="653427" value="1"/>
  <variable name="Y(4076,71)" index="660220" value="1"/>
  <variable name="Y(4079,74)" index="660709" value="1"/>
  <variable name="Y(4085,83)" index="661690" value="1"/>
  <variable name="X(1,2,19)" index="661788" value="1"/>
  <variable name="X(1,94,34)" index="665888" value="1"/>
  <variable name="X(2,1,34)" index="669973" value="1"/>
  <variable name="X(2,50,19)" index="674043" value="1"/>
  <variable name="X(2,95,2566)" index="680675" value="1"/>
  <variable name="X(3,4,2953)" index="685147" value="1"/>
  <variable name="X(3,6,3017)" index="689296" value="1"/>
  <variable name="X(3,64,318)" index="690682" value="1"/>
  <variable name="X(3,96,438)" index="694887" value="1"/>
  <variable name="X(4,3,438)" index="698972" value="1"/>
  <variable name="X(4,5,2953)" index="705572" value="1"/>
  <variable name="X(5,4,438)" index="707142" value="1"/>
  <variable name="X(5,6,3104)" index="713893" value="1"/>
  <variable name="X(5,13,2953)" index="717827" value="1"/>
  <variable name="X(5,44,3793)" index="722752" value="1"/>
  <variable name="X(5,70,2416)" index="725460" value="1"/>
  <variable name="X(5,98,277)" index="727406" value="1"/>
  <variable name="X(6,3,318)" index="731532" value="1"/>
  <variable name="X(6,5,277)" index="735576" value="1"/>
  <variable name="X(6,99,3017)" index="742401" value="1"/>
  <variable name="X(7,50,352)" index="743821" value="1"/>
  <variable name="X(7,100,388)" index="747942" value="1"/>
  <variable name="X(8,12,383)" index="752022" value="1"/>
  <variable name="X(8,101,1930)" index="757654" value="1"/>
  <variable name="X(9,50,388)" index="760197" value="1"/>
  <variable name="X(9,102,866)" index="764760" value="1"/>
  <variable name="X(10,11,447)" index="768426" value="1"/>
  <variable name="X(10,13,438)" index="772502" value="1"/>
  <variable name="X(10,103,2281)" index="778430" value="1"/>
  <variable name="X(11,10,2281)" index="782515" value="1"/>
  <variable name="X(11,13,2284)" index="786603" value="1"/>
  <variable name="X(11,46,447)" index="788851" value="1"/>
  <variable name="X(11,104,2953)" index="795442" value="1"/>
  <variable name="X(12,8,1930)" index="798504" value="1"/>
  <variable name="X(12,30,2379)" index="803038" value="1"/>
  <variable name="X(12,49,383)" index="805127" value="1"/>
  <variable name="X(12,105,1424)" index="810253" value="1"/>
  <variable name="X(13,5,438)" index="813352" value="1"/>
  <variable name="X(13,10,206)" index="817205" value="1"/>
  <variable name="X(13,11,2953)" index="824037" value="1"/>
  <variable name="X(13,106,2284)" index="827453" value="1"/>
  <variable name="X(14,24,1513)" index="830767" value="1"/>
  <variable name="X(14,31,2302)" index="835641" value="1"/>
  <variable name="X(14,68,1487)" index="838911" value="1"/>
  <variable name="X(14,107,2878)" index="844387" value="1"/>
  <variable name="X(15,42,3901)" index="849495" value="1"/>
  <variable name="X(15,51,1968)" index="851647" value="1"/>
  <variable name="X(15,108,870)" index="854634" value="1"/>
  <variable name="X(16,17,1064)" index="858913" value="1"/>
  <variable name="X(16,18,383)" index="862317" value="1"/>
  <variable name="X(16,20,3680)" index="869699" value="1"/>
  <variable name="X(16,109,871)" index="870975" value="1"/>
  <variable name="X(17,16,3680)" index="877869" value="1"/>
  <variable name="X(17,22,1064)" index="879338" value="1"/>
  <variable name="X(17,110,1074)" index="883433" value="1"/>
  <variable name="X(18,16,871)" index="887315" value="1"/>
  <variable name="X(18,19,3614)" index="894143" value="1"/>
  <variable name="X(18,75,383)" index="894997" value="1"/>
  <variable name="X(18,111,714)" index="899413" value="1"/>
  <variable name="X(19,18,871)" index="903655" value="1"/>
  <variable name="X(19,23,3614)" index="910483" value="1"/>
  <variable name="X(19,112,2704)" index="913658" value="1"/>
  <variable name="X(20,16,383)" index="915422" value="1"/>
  <variable name="X(20,21,3680)" index="922804" value="1"/>
  <variable name="X(20,113,2369)" index="925578" value="1"/>
  <variable name="X(21,20,383)" index="927677" value="1"/>
  <variable name="X(21,23,2704)" index="934083" value="1"/>
  <variable name="X(21,50,866)" index="936330" value="1"/>
  <variable name="X(21,114,3680)" index="943229" value="1"/>
  <variable name="X(22,17,1074)" index="944708" value="1"/>
  <variable name="X(22,79,1064)" index="948783" value="1"/>
  <variable name="X(22,115,1161)" index="952965" value="1"/>
  <variable name="X(23,19,2704)" index="958593" value="1"/>
  <variable name="X(23,21,866)" index="960840" value="1"/>
  <variable name="X(23,116,3614)" index="967673" value="1"/>
  <variable name="X(24,14,2878)" index="971022" value="1"/>
  <variable name="X(24,25,221)" index="972450" value="1"/>
  <variable name="X(24,26,2710)" index="979024" value="1"/>
  <variable name="X(24,34,3229)" index="983628" value="1"/>
  <variable name="X(24,35,1513)" index="985997" value="1"/>
  <variable name="X(24,57,1644)" index="990213" value="1"/>
  <variable name="X(24,76,1161)" index="993815" value="1"/>
  <variable name="X(24,117,1294)" index="998033" value="1"/>
  <variable name="X(25,24,3229)" index="1004053" value="1"/>
  <variable name="X(25,69,1276)" index="1006185" value="1"/>
  <variable name="X(25,118,221)" index="1009215" value="1"/>
  <variable name="X(26,24,1294)" index="1014373" value="1"/>
  <variable name="X(26,119,2710)" index="1019874" value="1"/>
  <variable name="X(27,57,2878)" index="1024127" value="1"/>
  <variable name="X(27,58,1340)" index="1026674" value="1"/>
  <variable name="X(27,59,2813)" index="1032232" value="1"/>
  <variable name="X(27,60,1644)" index="1035148" value="1"/>
  <variable name="X(27,62,1747)" index="1039336" value="1"/>
  <variable name="X(27,120,1671)" index="1043345" value="1"/>
  <variable name="X(28,51,1362)" index="1047121" value="1"/>
  <variable name="X(28,121,2654)" index="1052498" value="1"/>
  <variable name="X(29,37,2912)" index="1056841" value="1"/>
  <variable name="X(29,51,1586)" index="1059600" value="1"/>
  <variable name="X(29,59,1747)" index="1063846" value="1"/>
  <variable name="X(29,122,2813)" index="1068997" value="1"/>
  <variable name="X(30,12,1424)" index="1071693" value="1"/>
  <variable name="X(30,123,2379)" index="1076733" value="1"/>
  <variable name="X(31,14,1487)" index="1079926" value="1"/>
  <variable name="X(31,124,2302)" index="1084826" value="1"/>
  <variable name="X(32,33,1513)" index="1088122" value="1"/>
  <variable name="X(33,68,1513)" index="1092207" value="1"/>
  <variable name="X(33,126,604)" index="1095383" value="1"/>
  <variable name="X(34,24,1644)" index="1100508" value="1"/>
  <variable name="X(34,127,3229)" index="1106178" value="1"/>
  <variable name="X(35,24,2710)" index="1109744" value="1"/>
  <variable name="X(35,58,1671)" index="1112790" value="1"/>
  <variable name="X(35,128,1513)" index="1116717" value="1"/>
  <variable name="X(36,37,1740)" index="1121029" value="1"/>
  <variable name="X(36,53,2654)" index="1126028" value="1"/>
  <variable name="X(36,56,3573)" index="1131032" value="1"/>
  <variable name="X(36,129,1173)" index="1132717" value="1"/>
  <variable name="X(37,29,1747)" index="1137376" value="1"/>
  <variable name="X(37,36,1173)" index="1140887" value="1"/>
  <variable name="X(37,54,1740)" index="1145539" value="1"/>
  <variable name="X(37,130,2912)" index="1150796" value="1"/>
  <variable name="X(38,43,352)" index="1152321" value="1"/>
  <variable name="X(38,49,2018)" index="1158072" value="1"/>
  <variable name="X(38,131,1439)" index="1161578" value="1"/>
  <variable name="X(39,41,2776)" index="1167000" value="1"/>
  <variable name="X(39,45,2416)" index="1170725" value="1"/>
  <variable name="X(39,49,2082)" index="1174476" value="1"/>
  <variable name="X(39,132,1844)" index="1178323" value="1"/>
  <variable name="X(40,41,1847)" index="1182411" value="1"/>
  <variable name="X(40,133,2776)" index="1187425" value="1"/>
  <variable name="X(41,39,1844)" index="1190578" value="1"/>
  <variable name="X(41,40,2776)" index="1195595" value="1"/>
  <variable name="X(41,46,1847)" index="1198751" value="1"/>
  <variable name="X(41,134,2247)" index="1203236" value="1"/>
  <variable name="X(42,15,870)" index="1205944" value="1"/>
  <variable name="X(42,52,1930)" index="1211089" value="1"/>
  <variable name="X(42,135,3901)" index="1217145" value="1"/>
  <variable name="X(43,38,2018)" index="1219347" value="1"/>
  <variable name="X(43,136,352)" index="1221766" value="1"/>
  <variable name="X(44,5,2416)" index="1227915" value="1"/>
  <variable name="X(44,45,2072)" index="1231656" value="1"/>
  <variable name="X(44,137,3793)" index="1237462" value="1"/>
  <variable name="X(45,39,2082)" index="1239836" value="1"/>
  <variable name="X(45,44,2416)" index="1244255" value="1"/>
  <variable name="X(45,138,2072)" index="1247996" value="1"/>
  <variable name="X(46,11,2284)" index="1252293" value="1"/>
  <variable name="X(46,41,2247)" index="1256341" value="1"/>
  <variable name="X(46,47,2018)" index="1260197" value="1"/>
  <variable name="X(46,49,447)" index="1262711" value="1"/>
  <variable name="X(46,139,1847)" index="1268196" value="1"/>
  <variable name="X(47,46,2247)" index="1272681" value="1"/>
  <variable name="X(47,140,2018)" index="1276537" value="1"/>
  <variable name="X(48,61,2616)" index="1281220" value="1"/>
  <variable name="X(49,12,1930)" index="1284619" value="1"/>
  <variable name="X(49,38,352)" index="1287126" value="1"/>
  <variable name="X(49,39,2416)" index="1293275" value="1"/>
  <variable name="X(49,46,2018)" index="1296962" value="1"/>
  <variable name="X(49,50,383)" index="1299412" value="1"/>
  <variable name="X(49,52,2082)" index="1305196" value="1"/>
  <variable name="X(49,142,447)" index="1307646" value="1"/>
  <variable name="X(50,2,2566)" index="1313850" value="1"/>
  <variable name="X(50,7,388)" index="1315757" value="1"/>
  <variable name="X(50,9,866)" index="1320320" value="1"/>
  <variable name="X(50,21,383)" index="1323922" value="1"/>
  <variable name="X(50,49,352)" index="1327976" value="1"/>
  <variable name="X(50,52,19)" index="1331728" value="1"/>
  <variable name="X(50,143,1362)" index="1337156" value="1"/>
  <variable name="X(51,15,3901)" index="1343780" value="1"/>
  <variable name="X(51,28,2654)" index="1346618" value="1"/>
  <variable name="X(51,29,2912)" index="1350961" value="1"/>
  <variable name="X(51,52,1362)" index="1353496" value="1"/>
  <variable name="X(51,53,1586)" index="1357805" value="1"/>
  <variable name="X(51,55,1968)" index="1362272" value="1"/>
  <variable name="X(51,61,2082)" index="1366471" value="1"/>
  <variable name="X(51,144,2606)" index="1371080" value="1"/>
  <variable name="X(52,42,870)" index="1373429" value="1"/>
  <variable name="X(52,49,1930)" index="1378574" value="1"/>
  <variable name="X(52,50,1362)" index="1382091" value="1"/>
  <variable name="X(52,51,2082)" index="1386896" value="1"/>
  <variable name="X(52,145,19)" index="1388918" value="1"/>
  <variable name="X(53,36,3573)" index="1396557" value="1"/>
  <variable name="X(53,51,2654)" index="1399723" value="1"/>
  <variable name="X(53,146,1586)" index="1402740" value="1"/>
  <variable name="X(54,147,1740)" index="1406979" value="1"/>
  <variable name="X(55,48,2616)" index="1411940" value="1"/>
  <variable name="X(55,51,2606)" index="1416015" value="1"/>
  <variable name="X(55,148,1968)" index="1419462" value="1"/>
  <variable name="X(56,36,2654)" index="1424233" value="1"/>
  <variable name="X(56,149,3573)" index="1429237" value="1"/>
  <variable name="X(57,24,2878)" index="1432627" value="1"/>
  <variable name="X(57,27,1644)" index="1435478" value="1"/>
  <variable name="X(57,150,1193)" index="1439112" value="1"/>
  <variable name="X(58,27,1671)" index="1443675" value="1"/>
  <variable name="X(58,35,2710)" index="1448799" value="1"/>
  <variable name="X(58,151,1340)" index="1451514" value="1"/>
  <variable name="X(59,27,1747)" index="1456006" value="1"/>
  <variable name="X(59,29,2813)" index="1461157" value="1"/>
  <variable name="X(59,152,2731)" index="1465160" value="1"/>
  <variable name="X(60,27,2813)" index="1469327" value="1"/>
  <variable name="X(60,153,1644)" index="1472243" value="1"/>
  <variable name="X(61,51,2912)" index="1477596" value="1"/>
  <variable name="X(61,63,2616)" index="1481385" value="1"/>
  <variable name="X(61,154,2082)" index="1484936" value="1"/>
  <variable name="X(62,27,2878)" index="1489817" value="1"/>
  <variable name="X(62,155,1747)" index="1492771" value="1"/>
  <variable name="X(63,61,2912)" index="1498021" value="1"/>
  <variable name="X(63,156,2616)" index="1501810" value="1"/>
  <variable name="X(64,3,3017)" index="1506296" value="1"/>
  <variable name="X(64,65,318)" index="1507682" value="1"/>
  <variable name="X(64,157,3127)" index="1514576" value="1"/>
  <variable name="X(65,64,3127)" index="1518661" value="1"/>
  <variable name="X(65,71,3049)" index="1522668" value="1"/>
  <variable name="X(65,158,318)" index="1524022" value="1"/>
  <variable name="X(66,72,4076)" index="1531865" value="1"/>
  <variable name="X(66,81,221)" index="1532095" value="1"/>
  <variable name="X(66,159,3804)" index="1539763" value="1"/>
  <variable name="X(67,73,3127)" index="1543171" value="1"/>
  <variable name="X(67,81,3527)" index="1547656" value="1"/>
  <variable name="X(67,160,2620)" index="1550834" value="1"/>
  <variable name="X(68,14,1513)" index="1553812" value="1"/>
  <variable name="X(68,33,604)" index="1556988" value="1"/>
  <variable name="X(68,69,1487)" index="1561956" value="1"/>
  <variable name="X(68,161,1276)" index="1565830" value="1"/>
  <variable name="X(69,25,3229)" index="1571868" value="1"/>
  <variable name="X(69,68,1276)" index="1574000" value="1"/>
  <variable name="X(69,162,1487)" index="1578296" value="1"/>
  <variable name="X(70,5,3104)" index="1583998" value="1"/>
  <variable name="X(70,71,2935)" index="1587914" value="1"/>
  <variable name="X(70,163,2416)" index="1591480" value="1"/>
  <variable name="X(71,65,3127)" index="1596276" value="1"/>
  <variable name="X(71,70,3104)" index="1600338" value="1"/>
  <variable name="X(71,72,2935)" index="1604254" value="1"/>
  <variable name="X(71,73,3049)" index="1608453" value="1"/>
  <variable name="X(71,164,4076)" index="1613565" value="1"/>
  <variable name="X(72,66,221)" index="1613795" value="1"/>
  <variable name="X(72,71,4076)" index="1621735" value="1"/>
  <variable name="X(72,165,2935)" index="1624679" value="1"/>
  <variable name="X(73,67,3527)" index="1629356" value="1"/>
  <variable name="X(73,71,3127)" index="1633041" value="1"/>
  <variable name="X(73,166,3049)" index="1637048" value="1"/>
  <variable name="X(74,75,3808)" index="1641892" value="1"/>
  <variable name="X(74,78,383)" index="1642552" value="1"/>
  <variable name="X(74,167,4079)" index="1650333" value="1"/>
  <variable name="X(75,18,3614)" index="1653953" value="1"/>
  <variable name="X(75,74,383)" index="1654807" value="1"/>
  <variable name="X(75,168,3808)" index="1662317" value="1"/>
  <variable name="X(76,24,221)" index="1662815" value="1"/>
  <variable name="X(76,77,1109)" index="1667788" value="1"/>
  <variable name="X(76,80,1161)" index="1671925" value="1"/>
  <variable name="X(76,169,3925)" index="1678774" value="1"/>
  <variable name="X(77,76,221)" index="1679155" value="1"/>
  <variable name="X(77,78,2620)" index="1685639" value="1"/>
  <variable name="X(77,170,1109)" index="1688213" value="1"/>
  <variable name="X(78,74,4079)" index="1695268" value="1"/>
  <variable name="X(78,77,221)" index="1695495" value="1"/>
  <variable name="X(78,81,2620)" index="1701979" value="1"/>
  <variable name="X(78,83,3813)" index="1707257" value="1"/>
  <variable name="X(78,171,383)" index="1707912" value="1"/>
  <variable name="X(79,22,1161)" index="1712775" value="1"/>
  <variable name="X(79,80,1064)" index="1716763" value="1"/>
  <variable name="X(80,76,3925)" index="1723709" value="1"/>
  <variable name="X(80,79,1161)" index="1725030" value="1"/>
  <variable name="X(80,173,1064)" index="1729018" value="1"/>
  <variable name="X(81,66,3804)" index="1735843" value="1"/>
  <variable name="X(81,67,2620)" index="1738744" value="1"/>
  <variable name="X(81,78,221)" index="1740430" value="1"/>
  <variable name="X(81,82,3527)" index="1747821" value="1"/>
  <variable name="X(81,174,4033)" index="1752412" value="1"/>
  <variable name="X(82,81,4033)" index="1756497" value="1"/>
  <variable name="X(82,83,4034)" index="1760583" value="1"/>
  <variable name="X(82,175,3527)" index="1764161" value="1"/>
  <variable name="X(83,78,4079)" index="1768798" value="1"/>
  <variable name="X(83,82,4085)" index="1772889" value="1"/>
  <variable name="X(83,176,3813)" index="1776702" value="1"/>
 </variables>
</CPLEXSolution>
